100 100 100
50
91 47 82
82 38 67
45 99 88
97 39 88
84 5 74
30 69 88
66 45 74
100 4 70
68 23 93
82 23 84
77 7 93
21 22 43
79 49 77
69 47 98
90 32 75
20 72 100
11 93 93
86 34 97
14 8 42
88 89 43
86 19 74
5 80 99
79 44 92
10 66 84
85 37 66
84 43 67
83 3 74
88 84 77
99 24 82
49 97 98
67 34 79
98 34 95
93 35 75
88 70 73
92 98 15
88 80 8
81 34 81
14 90 67
64 59 92
74 50 55
94 21 85
79 23 80
74 21 97
90 39 81
92 28 88
82 46 84
91 92 84
99 30 97
73 26 74
12 9 42
